
(set-logic ALL) 

(declare-datatype MyList ((Nil) (Cons (head Real) (tail MyList)) )) 
(declare-fun l0 () MyList) 
(declare-fun l1 () MyList) 
(declare-fun l2 () MyList) 
(declare-fun l3 () MyList) 
(declare-fun i0 () Real) 
(declare-fun i1 () Real) 
(assert (not (= l3 l2)) )
(assert (is-Cons Nil) )
(assert (not (is-Nil Nil)) )
(assert (or (= l2 Nil) (= l3 l1)) )
(assert (= l3 l0) )
(assert (or (is-Nil Nil) (= l2 l3)) )
(assert (is-Nil l0) )
(assert (or (is-Nil Nil) (is-Cons l2) (is-Nil Nil) (= l1 Nil)) )
(check-sat)
